c --- [ banner ] -------------------------------------------------------------
c 
c CaDiCaL Radically Simplified CDCL SAT Solver
c Copyright (c) 2016-2021 A. Biere, M. Fleury, N. Froleyks
c 
c Version 1.5.2 9c38a080b32c28d805e8e6ca21849856b0cda605
c g++ (Ubuntu 7.5.0-3ubuntu1~18.04) 7.5.0 -Wall -Wextra -O3 -DNDEBUG
c Wed Feb 16 23:15:36 EST 2022 Linux fac-vanhoeve01 5.4.0-99-generic x86_64
c 
c --- [ limit ] --------------------------------------------------------------
c 
c setting time limit to 600 seconds real time (due to '-t 600')
c setting conflict limit to 1000000000 conflicts (due to '1000000000')
c 
c --- [ parsing input ] ------------------------------------------------------
c 
c reading DIMACS file from 'ddfwcnfs/queen13_13.col_13.cnf'
c opening file to read 'ddfwcnfs/queen13_13.col_13.cnf'
c found 'p cnf 2197 38519' header
c parsed 38519 clauses in 0.02 seconds process time
c closing file 'ddfwcnfs/queen13_13.col_13.cnf'
c after reading 502546 bytes 0.5 MB
c 
c --- [ options ] ------------------------------------------------------------
c 
c all options are set to their default value
c 
c --- [ solving ] ------------------------------------------------------------
c 
c time measured in process time since initialization
c 
c  seconds  reductions  redundant  irredundant
c         MB    restarts       trail     variables
c          level   conflicts       glue       remaining
c 
c *  0.02  7  0 0   0    0    0  0% 0 38350 2028 92%
c {  0.02  7  0 0   0    0    0  0% 0 38350 2028 92%
c -  0.04  8 12 1   0  300  112 28% 9 38350 2028 92%
c -  0.07  9 12 2  17  900  339 28% 9 38350 2028 92%
c }  0.08  9 11 2  17 1000  388 28% 9 38350 2028 92%
c [  0.08  9  0 2  17 1000  388  0% 0 38350 2028 92%
c O  0.08  9 23 2  17 1002  390 32% 12 38350 2028 92%
c -  0.11  9 15 3  17 1800  693 28% 12 38350 2028 92%
c ]  0.15  9 16 3  18 3004 1558 27% 13 38350 2028 92%
c {  0.15  9 11 3  18 3004 1558 28% 9 38350 2028 92%
c -  0.16  9 11 4  18 3004 1114 28% 9 38350 2028 92%
c F  0.16  9 11 4  18 3005 1115 28% 9 38350 2028 92%
c -  0.21  9 12 5  89 4504 1002 28% 10 38350 2028 92%
c #  0.40  9 24 5 433 6006 2394 45% 15 38350 2028 92%
c -  0.42  9 23 6 440 6304 1829 44% 15 38350 2028 92%
c }  0.44  9 22 6 440 7004 2203 42% 14 38350 2028 92%
c [  0.44  9 16 6 440 7004 2203 27% 13 38350 2028 92%
c -  0.51  9 20 7 441 8406 1943 33% 16 38350 2028 92%
c s  0.52 10 20 7 441 8483 1751 34% 16 38350 2028 92%
c e  0.64 10 20 7 441 8483   87 34% 16 28178 1560 71%
c 
c  seconds  reductions  redundant   irredundant
c         MB    restarts       trail      variables
c          level   conflicts       glue        remaining
c 
c ^  0.67 10 20 7 441 8483   87 34% 16 28178 1560 71%
c I  0.74  9 21 7 442 10009 1200 28% 16 28178 1560 71%
c -  0.86 10 39 8 443 10806 1931 48% 23 28178 1560 71%
c -  1.30 11 71 9 445 13507 3181 67% 37 28178 1560 71%
c ]  1.62 11 81 9 445 15004 4646 71% 42 28178 1560 71%
c {  1.62 11 22 9 445 15004 4646 60% 14 28178 1560 71%
c B  1.63 11 22 9 446 15013 4654 60% 15 28178 1560 71%
c -  1.90 11 31 10 816 16509 3945 64% 18 28178 1560 71%
c -  2.37 11 38 11 1505 19810 3870 66% 21 28178 1560 71%
c W  2.62 11 40 11 1800 21015 5031 67% 22 28178 1560 71%
c -  2.79 12 37 12 1947 23410 3825 62% 21 28178 1560 71%
c s  2.88 12 34 12 1947 25185 4388 57% 20 28178 1560 71%
c s  2.98 12 34 12 1947 25185 3895 57% 20 28178 1560 71%
c ^  2.98 12 34 12 1947 25185 3895 57% 20 28178 1560 71%
c -  3.07 12 32 13 1947 27310 3404 53% 19 28178 1560 71%
c F  3.09 12 31 13 1947 28016 3895 51% 18 28178 1560 71%
c }  3.25 12 29 13 1947 31005 6200 47% 17 28178 1560 71%
c [  3.25 12 81 13 1947 31005 6200 71% 42 28178 1560 71%
c -  3.28 12 78 14 1947 31510 4105 68% 40 28178 1560 71%
c -  3.48 13 60 15 1950 36011 4480 50% 32 28178 1560 71%
c 
c  seconds  reductions     redundant   irredundant
c         MB     restarts         trail      variables
c          level      conflicts       glue        remaining
c 
c B  3.48 13 60 15 1950 36018 4485 50% 32 28178 1560 71%
c -  4.19 15 77 16 1953 40813 5736 60% 37 28178 1560 71%
c W  4.88 15 75 16 1954 45019 9724 65% 38 28178 1560 71%
c -  5.04 13 75 17 1955 45914 6502 66% 38 28178 1560 71%
c s  5.79 13 72 17 1955 50235 10031 69% 39 28178 1560 71%
c w  5.83 13 72 17 1955 50235 10031 69% 39 28178 1560 71%
c s  5.92 13 72 17 1955 50235 9888 69% 39 28178 1560 71%
c ^  5.93 13 72 17 1955 50235 9888 69% 39 28178 1560 71%
c -  6.13 14 71 18 1955 51316 6945 69% 39 28178 1560 71%
c O  6.66 14 70 18 1956 55020 10331 71% 39 28178 1560 71%
c -  6.76 14 66 19 1958 57016 6901 68% 37 28178 1560 71%
c ]  7.01 14 58 19 1962 63005 10825 60% 34 28178 1560 71%
c {  7.01 14 29 19 1962 63005 10825 47% 17 28178 1560 71%
c -  7.03 14 29 20 1962 63016 5829 47% 17 28178 1560 71%
c B  7.17 14 27 20 1971 66022 7836 44% 17 28178 1560 71%
c -  7.38 14 27 21 2113 69317 6181 42% 17 28178 1560 71%
c -  7.71 14 24 22 2113 75918 6099 38% 15 28178 1560 71%
c W  7.90 14 23 22 2113 78024 7513 37% 15 28178 1560 71%
c -  8.14 14 22 23 2230 82819 6275 36% 15 28178 1560 71%
c s  8.19 14 22 23 2230 83635 6080 36% 15 28178 1560 71%
c 
c  seconds  reductions     redundant   irredundant
c         MB     restarts         trail      variables
c          level      conflicts       glue        remaining
c 
c w  8.23 14 22 23 2230 83635 6080 36% 15 28178 1560 71%
c s  8.30 14 22 23 2230 83635 5797 36% 15 28178 1560 71%
c ^  8.31 14 22 23 2230 83635 5797 36% 15 28178 1560 71%
c -  8.68 14 22 24 2515 90023 6188 35% 15 28178 1560 71%
c #  8.71 14 22 24 2515 91025 6662 35% 14 28178 1560 71%
c -  8.95 14 21 25 2524 97525 6031 34% 14 28178 1560 71%
c B  9.33 14 19 25 2524 105032 11050 32% 14 28178 1560 71%
c -  9.37 14 20 26 2549 105327 7083 32% 14 28178 1560 71%
c -  9.67 14 19 27 2601 113428 6313 31% 13 28178 1560 71%
c W 10.09 14 18 27 2657 120033 10230 30% 13 28178 1560 71%
c - 10.20 14 18 28 2663 121831 6835 30% 13 28178 1560 71%
c s 10.36 14 18 28 2678 125385 8290 30% 13 28178 1560 71%
c s 10.47 14 18 28 2678 125385 8071 30% 13 28178 1560 71%
c ^ 10.48 14 18 28 2678 125385 8071 30% 13 28178 1560 71%
c } 10.54 14 17 28 2678 127007 9006 30% 13 28178 1560 71%
c [ 10.55 14 58 28 2678 127007 9006 60% 34 28178 1560 71%
c - 10.72 14 55 29 2678 130532 7284 56% 32 28178 1560 71%
c B 11.02 14 51 29 2683 136034 11179 52% 30 28178 1560 71%
c - 11.56 16 57 30 2685 139533 9614 54% 33 28178 1560 71%
c - 13.33 18 62 31 2686 148833 11269 60% 37 28178 1560 71%
c 
c  seconds  reductions       redundant   irredundant
c         MB     restarts           trail      variables
c          level      conflicts         glue        remaining
c 
c W 14.38 18 64 31 2687 153036 15102 61% 38 28178 1560 71%
c - 15.68 18 63 32 2687 158433 12176 64% 39 28178 1560 71%
c - 17.67 15 63 33 2688 168337 12668 67% 40 28178 1560 71%
c I 18.22 15 64 33 2690 171040 14950 67% 41 28178 1560 71%
c s 19.01 15 71 33 2693 175488 18880 68% 44 28178 1560 71%
c w 19.08 15 71 33 2693 175488 18878 68% 44 28178 1560 71%
c s 19.19 15 71 33 2693 175488 18826 68% 44 28178 1560 71%
c - 19.78 20 72 34 2694 178539 13612 69% 45 28178 1560 71%
c - 22.11 20 76 35 2701 189039 13965 71% 48 28178 1560 71%
c B 22.32 20 76 35 2701 190041 14910 72% 48 28178 1560 71%
c - 24.73 20 78 36 2702 199840 14550 73% 50 28178 1560 71%
c W 27.34 20 80 36 2709 210044 23657 75% 53 28178 1560 71%
c - 27.63 21 80 37 2709 210940 14980 75% 53 28178 1560 71%
c - 30.84 18 80 38 2716 222340 14745 76% 54 28178 1560 71%
c O 33.06 18 80 38 2717 231047 22140 77% 55 28178 1560 71%
c - 33.22 22 77 39 2717 234042 14932 75% 53 28178 1560 71%
c - 33.84 22 69 40 2718 246043 12100 67% 48 28178 1560 71%
c B 34.19 22 66 40 2719 253049 17093 63% 45 28178 1560 71%
c ] 34.43 22 69 40 2719 255007 18964 64% 46 28178 1560 71%
c { 34.43 22 17 40 2719 255007 18964 30% 13 28178 1560 71%
c 
c  seconds  reductions       redundant   irredundant
c         MB     restarts           trail      variables
c          level      conflicts         glue        remaining
c 
c - 34.65 22 18 41 2919 258343 12334 30% 13 28178 1560 71%
c - 35.20 22 17 42 3100 270943 10654 29% 13 28178 1560 71%
c F 35.52 22 17 42 3299 276050 14116 29% 13 28178 1560 71%
c - 35.84 22 17 43 3326 283847 10965 29% 13 28178 1560 71%
c - 36.43 22 16 44 3439 297049 10344 28% 12 28178 1560 71%
c B 36.56 22 16 44 3474 300052 11810 28% 12 28178 1560 71%
c - 37.19 22 17 45 3935 310551 11081 29% 12 28178 1560 71%
c - 37.84 22 16 46 4087 324352 11268 28% 12 28178 1560 71%
c W 38.19 22 16 46 4101 325053 11668 28% 12 28178 1560 71%
c - 38.90 22 16 47 4691 338452 11923 28% 12 28178 1560 71%
c # 39.39 22 16 47 5026 351057 19088 28% 12 28178 1560 71%
c - 39.47 22 16 48 5051 352852 11664 28% 12 28178 1560 71%
c - 40.36 22 17 49 5933 367552 12826 29% 13 28178 1560 71%
c B 40.73 22 17 49 6033 378058 18620 28% 13 28178 1560 71%
c - 41.34 22 18 50 6855 382552 12899 30% 13 28178 1560 71%
c - 42.75 22 20 51 8645 397856 14562 33% 14 28178 1560 71%
c W 44.02 22 22 51 9725 406060 20852 35% 15 28178 1560 71%
c - 44.38 22 21 52 9869 413456 14934 34% 15 28178 1560 71%
c - 45.13 22 20 53 9887 429357 14291 33% 14 28178 1560 71%
c F 45.42 22 20 53 9889 435061 17786 32% 14 28178 1560 71%
c 
c  seconds  reductions       redundant   irredundant
c         MB     restarts           trail      variables
c          level      conflicts         glue        remaining
c 
c - 45.90 22 19 54 9907 445557 14229 31% 14 28178 1560 71%
c - 46.81 22 18 55 9983 462057 14042 30% 13 28178 1560 71%
c B 46.94 22 18 55 9983 465062 15576 30% 13 28178 1560 71%
c - 47.54 22 18 56 10356 478857 13865 29% 13 28178 1560 71%
c s 47.57 22 18 56 10356 478857 11197 29% 13 28178 1560 71%
c w 47.66 22 18 56 10356 478857 11196 29% 13 28178 1560 71%
c - 48.51 22 17 57 10458 495958 13451 28% 13 28178 1560 71%
c W 48.98 22 17 57 10458 496063 13505 28% 13 28178 1560 71%
c } 49.75 22 16 57 10575 511007 22213 28% 12 28178 1560 71%
c [ 49.75 22 69 57 10575 511007 22213 64% 46 28178 1560 71%
c - 49.90 22 72 58 10575 513359 15332 64% 45 28178 1560 71%
c W 51.57 22 82 58 10575 528064 26469 60% 43 28178 1560 71%
c - 51.87 22 81 59 10575 531060 18366 59% 43 28178 1560 71%
c - 53.67 22 73 60 10582 549060 19690 53% 40 28178 1560 71%
c I 54.86 22 68 60 10589 561065 28537 49% 38 28178 1560 71%
c - 56.18 28 92 61 10590 567360 21823 51% 47 28178 1560 71%
c - 61.04 32 113 62 10598 585960 23450 56% 59 28178 1560 71%
c B 62.96 32 110 62 10604 595066 31545 59% 58 28178 1560 71%
c - 65.48 26 105 63 10605 604860 23216 61% 57 28178 1560 71%
c - 70.17 32 95 64 10607 624060 23723 65% 54 28178 1560 71%
c 
c  seconds  reductions        redundant   irredundant
c         MB      restarts           trail      variables
c          level       conflicts         glue        remaining
c 
c W 72.29 32 93 64 10612 630067 29060 66% 53 28178 1560 71%
c - 76.85 32 87 65 10619 643560 24342 68% 52 28178 1560 71%
c - 81.96 32 80 66 10627 663360 24471 71% 50 28178 1560 71%
c O 82.59 32 79 66 10628 666068 26717 71% 49 28178 1560 71%
c - 83.72 32 69 67 10636 683461 21808 64% 44 28178 1560 71%
c B 84.97 32 61 67 10637 703069 35122 56% 39 28178 1560 71%
c - 85.12 32 62 68 10637 703861 20931 56% 39 28178 1560 71%
c - 88.82 33 70 69 10638 724561 24369 61% 43 28178 1560 71%
c W 94.07 33 72 69 10639 741071 39515 64% 45 28178 1560 71%
c - 95.84 41 72 70 10639 745561 27004 65% 45 28178 1560 71%
c - 102.02 41 69 71 10639 766863 28579 69% 45 28178 1560 71%
c I 105.14 41 67 71 10639 780073 40510 71% 44 28178 1560 71%
c - 106.50 41 86 72 10639 788463 28623 71% 47 28178 1560 71%
c - 112.50 55 121 73 10643 810364 28807 73% 57 28178 1560 71%
c B 114.64 55 118 73 10648 820074 37602 74% 57 28178 1560 71%
c - 117.05 41 114 74 10654 832564 27671 75% 57 28178 1560 71%
c s 117.10 41 114 74 10654 832564 25944 75% 57 28178 1560 71%
c w 117.27 41 114 74 10654 832564 25944 75% 57 28178 1560 71%
c - 123.65 41 105 75 10664 855065 27983 77% 56 28178 1560 71%
c W 126.18 41 102 75 10668 861075 32905 77% 56 28178 1560 71%
c 
c  seconds   reductions        redundant   irredundant
c          MB      restarts           trail      variables
c           level       conflicts         glue        remaining
c 
c - 130.17 41 95 76 10670 877865 28433 78% 54 28178 1560 71%
c - 137.07 41 87 77 10677 900966 29328 79% 52 28178 1560 71%
c O 137.61 41 87 77 10679 903079 31197 79% 52 28178 1560 71%
c - 138.83 41 75 78 10688 924367 25049 68% 45 28178 1560 71%
c B 140.51 41 64 78 10699 946081 40530 59% 39 28178 1560 71%
c - 140.82 41 65 79 10700 948068 25284 60% 40 28178 1560 71%
c - 145.72 41 64 80 10702 972069 28874 65% 40 28178 1560 71%
c W 151.63 41 62 80 10702 990084 44424 68% 40 28178 1560 71%
c - 153.84 41 62 81 10702 996370 30742 68% 40 28178 1560 71%
c - 161.83 41 58 82 10712 1020971 32012 72% 39 28178 1560 71%
c ] 162.40 41 57 82 10714 1023010 33640 72% 39 28178 1560 71%
c { 162.40 41 16 82 10714 1023010 33640 28% 12 28178 1560 71%
c # 162.96 41 16 82 10880 1035085 40192 27% 12 28178 1560 71%
c - 163.43 41 16 83 10890 1045872 24744 27% 12 28178 1560 71%
c - 164.71 41 15 84 10994 1071074 22760 26% 12 28178 1560 71%
c B 165.18 41 15 84 11061 1081086 28849 26% 12 28178 1560 71%
c - 165.96 41 15 85 11882 1096578 23269 26% 12 28178 1560 71%
c - 167.02 41 15 86 12537 1122378 20035 26% 12 28178 1560 71%
c W 168.29 41 15 86 12631 1128089 22843 26% 11 28178 1560 71%
c - 169.37 41 14 87 12921 1148478 19565 25% 11 28178 1560 71%
c 
c  seconds   reductions         redundant   irredundant
c          MB      restarts            trail      variables
c           level        conflicts         glue        remaining
c 
c - 170.69 41 14 88 13506 1174879 19737 25% 11 28178 1560 71%
c F 170.75 41 14 88 13527 1176090 20418 25% 11 28178 1560 71%
c - 171.90 41 13 89 14474 1201579 19056 25% 11 28178 1560 71%
c B 173.02 41 13 89 15232 1225091 30044 24% 11 28178 1560 71%
c - 173.53 41 14 90 15875 1228580 19470 26% 11 28178 1560 71%
c s 173.57 41 14 90 15875 1228580 16907 26% 11 28178 1560 71%
c w 173.66 41 14 90 15875 1228580 16905 26% 11 28178 1560 71%
c - 175.05 41 15 91 16381 1255881 24790 25% 11 28178 1560 71%
c W 178.35 41 18 91 18131 1275093 39948 28% 12 28178 1560 71%
c - 178.92 41 18 92 18911 1283482 27482 29% 12 28178 1560 71%
c - 180.42 41 18 93 19864 1311384 24640 29% 12 28178 1560 71%
c # 181.07 41 17 93 19931 1326095 33671 29% 12 28178 1560 71%
c - 181.63 41 17 94 19998 1339584 24207 28% 12 28178 1560 71%
c - 183.04 41 16 95 20389 1368086 22867 27% 12 28178 1560 71%
c B 183.55 41 16 95 20459 1378098 28459 27% 12 28178 1560 71%
c - 184.42 41 15 96 20919 1396888 22652 27% 12 28178 1560 71%
c - 185.85 41 15 97 21669 1425990 22265 27% 12 28178 1560 71%
c W 187.30 41 15 97 21702 1431099 25024 27% 12 28178 1560 71%
c - 189.38 41 18 98 23810 1455390 25167 30% 13 28178 1560 71%
c - 191.15 41 18 99 24899 1485090 26687 30% 13 28178 1560 71%
c 
c  seconds   reductions         redundant   irredundant
c          MB      restarts            trail      variables
c           level        conflicts         glue        remaining
c 
c F 191.15 41 18 99 24899 1485100 26695 30% 13 28178 1560 71%
c - 192.57 41 17 100 25202 1515091 24788 29% 12 28178 1560 71%
c B 193.86 41 16 100 25598 1540102 38455 27% 12 28178 1560 71%
c - 194.19 41 16 101 25862 1545391 23863 28% 12 28178 1560 71%
c - 195.76 41 17 102 27060 1575992 25095 28% 12 28178 1560 71%
c W 197.99 41 16 102 27424 1596103 36659 27% 12 28178 1560 71%
c - 198.52 41 16 103 27632 1606892 24592 27% 12 28178 1560 71%
c - 200.33 41 15 104 27977 1638093 24806 25% 12 28178 1560 71%
c # 201.10 41 14 104 28154 1653109 32914 25% 12 28178 1560 71%
c - 201.99 41 14 105 28428 1669594 24599 24% 11 28178 1560 71%
c s 202.02 41 14 105 28428 1669594 20660 24% 11 28178 1560 71%
c w 202.11 41 14 105 28428 1669594 20658 24% 11 28178 1560 71%
c - 203.38 41 14 106 28903 1701395 23508 24% 11 28178 1560 71%
c B 203.81 41 14 106 29085 1711112 29186 24% 11 28178 1560 71%
c - 205.46 41 16 107 31164 1733495 27466 27% 12 28178 1560 71%
c - 207.01 41 15 108 31760 1765898 24930 26% 12 28178 1560 71%
c W 208.72 41 15 108 31813 1770113 26902 26% 12 28178 1560 71%
c - 210.17 41 15 109 32522 1798598 25269 26% 12 28178 1560 71%
c F 211.59 41 14 109 32887 1830114 43079 25% 11 28178 1560 71%
c - 211.71 41 14 110 32899 1831599 26238 25% 11 28178 1560 71%
c 
c  seconds    reductions         redundant   irredundant
c          MB       restarts            trail      variables
c           level         conflicts         glue        remaining
c 
c - 213.22 41 14 111 33353 1864901 25748 25% 11 28178 1560 71%
c B 214.47 41 13 111 33799 1891115 40000 25% 11 28178 1560 71%
c - 215.60 41 16 112 35268 1898501 28310 28% 12 28178 1560 71%
c - 217.36 41 16 113 36233 1932401 28074 27% 12 28178 1560 71%
c W 220.21 41 15 113 36470 1953116 39029 26% 12 28178 1560 71%
c - 221.08 41 15 114 36610 1966602 26370 26% 12 28178 1560 71%
c - 223.00 41 14 115 37211 2001102 24840 25% 11 28178 1560 71%
c # 223.74 41 14 115 37389 2016118 32216 25% 11 28178 1560 71%
c - 224.84 41 13 116 37909 2035903 24921 25% 11 28178 1560 71%
c } 225.36 41 13 116 38178 2047011 30427 25% 11 28178 1560 71%
c [ 225.36 41 57 116 38178 2047011 30427 72% 39 28178 1560 71%
c - 226.83 41 55 117 38188 2071004 30188 64% 35 28178 1560 71%
c I 227.35 41 52 117 38193 2080119 36648 61% 34 28178 1560 71%
c - 233.72 41 63 118 38197 2106406 40366 66% 41 28178 1560 71%
c - 248.33 55 72 119 38212 2142106 43665 71% 49 28178 1560 71%
c s 248.37 55 72 119 38212 2142106 38856 71% 49 28178 1560 71%
c w 248.68 55 72 119 38212 2142106 38856 71% 49 28178 1560 71%
c B 249.70 55 73 119 38213 2145121 41642 71% 50 28178 1560 71%
c - 262.32 56 75 120 38228 2178106 46184 75% 52 28178 1560 71%
c W 277.42 56 77 120 38229 2211122 76893 77% 53 28178 1560 71%
c 
c  seconds    reductions         redundant   irredundant
c          MB       restarts            trail      variables
c           level         conflicts         glue        remaining
c 
c - 279.38 56 77 121 38229 2214406 48844 77% 53 28178 1560 71%
c - 295.90 57 77 122 38230 2251006 52157 78% 53 28178 1560 71%
c O 307.47 57 77 122 38230 2278124 77686 80% 53 28178 1560 71%
c - 308.28 41 72 123 38230 2287906 51095 75% 50 28178 1560 71%
c - 311.86 47 58 124 38231 2325107 41413 61% 40 28178 1560 71%
c B 314.00 47 54 124 38231 2346125 57209 54% 37 28178 1560 71%
c - 317.17 47 77 125 38231 2362609 44512 58% 42 28178 1560 71%
c - 327.08 53 118 126 38231 2400410 48958 66% 49 28178 1560 71%
c W 334.16 53 130 126 38231 2415129 63016 69% 52 28178 1560 71%
c - 342.38 68 120 127 38238 2438511 51439 72% 54 28178 1560 71%
c - 360.45 68 107 128 38256 2476911 51456 76% 55 28178 1560 71%
c I 364.59 68 104 128 38260 2485131 58721 77% 55 28178 1560 71%
c - 374.24 68 117 129 38267 2515611 51919 78% 65 28178 1560 71%
c - 386.27 86 120 130 38284 2554611 50307 77% 69 28178 1560 71%
c B 386.66 86 120 130 38285 2556132 51743 77% 69 28178 1560 71%
c - 397.44 68 104 131 38294 2593911 47693 78% 63 28178 1560 71%
c W 413.52 68 92 131 38296 2628138 76570 79% 59 28178 1560 71%
c - 414.48 68 90 132 38300 2633511 48979 79% 58 28178 1560 71%
c - 423.68 68 74 133 38318 2673412 46770 80% 50 28178 1560 71%
c s 423.84 68 74 133 38318 2673412 46119 80% 50 28178 1560 71%
c 
c  seconds    reductions         redundant   irredundant
c          MB       restarts            trail      variables
c           level         conflicts         glue        remaining
c 
c w 424.14 68 74 133 38318 2673412 46106 80% 50 28178 1560 71%
c O 433.34 68 66 133 38325 2701139 68966 80% 47 28178 1560 71%
c - 436.53 68 63 134 38328 2713612 51382 80% 45 28178 1560 71%
c - 448.30 68 56 135 38347 2754113 50094 80% 42 28178 1560 71%
c B 454.76 68 53 135 38355 2775141 67463 80% 40 28178 1560 71%
c - 460.90 68 51 136 38357 2794913 52590 81% 40 28178 1560 71%
c - 473.81 68 49 137 38358 2836013 53278 81% 39 28178 1560 71%
c W 481.03 68 48 137 38358 2850142 66021 81% 38 28178 1560 71%
c - 491.89 68 47 138 38358 2877413 53548 81% 38 28178 1560 71%
c - 507.83 68 46 139 38373 2919114 56458 81% 38 28178 1560 71%
c I 510.90 68 46 139 38374 2926146 62340 81% 38 28178 1560 71%
c - 519.14 68 63 140 38389 2961114 55603 81% 45 28178 1560 71%
c B 534.77 68 72 140 38404 3003147 91583 80% 52 28178 1560 71%
c - 535.02 68 72 141 38404 3003415 53285 80% 52 28178 1560 71%
c - 555.30 68 72 142 38420 3046015 53837 81% 53 28178 1560 71%
c W 572.24 68 72 142 38421 3081148 83466 81% 54 28178 1560 71%
c - 576.87 68 72 143 38421 3088916 55844 81% 54 28178 1560 71%
c - 591.92 68 72 144 38442 3132117 57162 80% 54 28178 1560 71%
c O 597.34 68 71 144 38452 3160151 81301 80% 53 28178 1560 71%
c - 598.07 68 64 145 38453 3175617 53970 72% 47 28178 1560 71%
c 
c  seconds    reductions         redundant   irredundant
c          MB       restarts            trail      variables
c           level         conflicts         glue        remaining
c 
c ] 599.96 68 54 145 38467 3206863 74768 58% 40 28178 1560 71%
c ? 599.96 68 54 145 38467 3206863 74768 58% 40 28178 1560 71%
c 
c --- [ result ] -------------------------------------------------------------
c 
c UNKNOWN
c 
c --- [ run-time profiling ] -------------------------------------------------
c 
c process time taken by individual solving procedures
c (percentage relative to process time for solving)
c 
c       591.93   98.67% search
c       494.01   82.34% stable
c        71.77   11.96% unstable
c        26.14    4.36% walk
c         8.01    1.33% simplify
c         4.05    0.67% probe
c         1.20    0.20% vivify
c         0.62    0.10% ternary
c         0.56    0.09% subsume
c         0.24    0.04% elim
c         0.02    0.00% parse
c         0.00    0.00% lucky
c   =================================
c       599.93  100.00% solve
c 
c last line shows process time for solving
c (percentage relative to total process time)
c 
c --- [ statistics ] ---------------------------------------------------------
c 
c chronological:            494595        15.42 %  of conflicts
c conflicts:               3206863      5345.36    per second
c decisions:               4668119      7781.05    per second
c eliminated:                  468        21.30 %  of all variables
c fixed:                       169         7.69 %  of all variables
c learned:                 3171738        98.90 %  per conflict
c learned_lits:          281735403       100.00 %  learned literals
c minimized:                     0         0.00 %  learned literals
c shrunken:              115802802        41.10 %  learned literals
c minishrunken:           20476887         7.27 %  learned literals
c propagations:          358833112         0.60 M  per second
c reduced:                 2277947        71.03 %  per conflict
c rephased:                     79     40593.20    interval
c restarts:                  38467        83.37    interval
c stabilizing:                   6        57.43 %  of conflicts
c subsumed:                 817335        12.71 %  of all clauses
c strengthened:              13960         0.22 %  of all clauses
c vivified:                    211         0.00 %  of all clauses
c walked:                       25    128274.52    interval
c weakened:                  15043         2.40    average size
c 
c seconds are measured in process time for solving
c 
c --- [ resources ] ----------------------------------------------------------
c 
c total process time since initialization:       599.96    seconds
c total real time since initialization:          600.00    seconds
c maximum resident set size of process:           85.56    MB
c 
c --- [ shutting down ] ------------------------------------------------------
c 
c exit 0
